*SENSE:Maximize
NAME          MODEL
ROWS
 N  OBJ
COLUMNS
    MARK      'MARKER'                 'INTORG'
    MARK      'MARKER'                 'INTEND'
    MARK      'MARKER'                 'INTORG'
    MARK      'MARKER'                 'INTEND'
    MARK      'MARKER'                 'INTORG'
    MARK      'MARKER'                 'INTEND'
    MARK      'MARKER'                 'INTORG'
    MARK      'MARKER'                 'INTEND'
    MARK      'MARKER'                 'INTORG'
    MARK      'MARKER'                 'INTEND'
    MARK      'MARKER'                 'INTORG'
    MARK      'MARKER'                 'INTEND'
    MARK      'MARKER'                 'INTORG'
    MARK      'MARKER'                 'INTEND'
    MARK      'MARKER'                 'INTORG'
    MARK      'MARKER'                 'INTEND'
    MARK      'MARKER'                 'INTORG'
    MARK      'MARKER'                 'INTEND'
    MARK      'MARKER'                 'INTORG'
    MARK      'MARKER'                 'INTEND'
    MARK      'MARKER'                 'INTORG'
    MARK      'MARKER'                 'INTEND'
    MARK      'MARKER'                 'INTORG'
    MARK      'MARKER'                 'INTEND'
    MARK      'MARKER'                 'INTORG'
    MARK      'MARKER'                 'INTEND'
    MARK      'MARKER'                 'INTORG'
    MARK      'MARKER'                 'INTEND'
    MARK      'MARKER'                 'INTORG'
    MARK      'MARKER'                 'INTEND'
    MARK      'MARKER'                 'INTORG'
    MARK      'MARKER'                 'INTEND'
    MARK      'MARKER'                 'INTORG'
    MARK      'MARKER'                 'INTEND'
    MARK      'MARKER'                 'INTORG'
    MARK      'MARKER'                 'INTEND'
    MARK      'MARKER'                 'INTORG'
    MARK      'MARKER'                 'INTEND'
    MARK      'MARKER'                 'INTORG'
    X0000019  OBJ        1.000000000000e+00
    MARK      'MARKER'                 'INTEND'
    MARK      'MARKER'                 'INTORG'
    MARK      'MARKER'                 'INTEND'
    MARK      'MARKER'                 'INTORG'
    X0000021  OBJ        1.000000000000e+00
    MARK      'MARKER'                 'INTEND'
RHS
BOUNDS
 BV BND       X0000000
 BV BND       X0000001
 BV BND       X0000002
 BV BND       X0000003
 BV BND       X0000004
 BV BND       X0000005
 BV BND       X0000006
 BV BND       X0000007
 BV BND       X0000008
 BV BND       X0000009
 BV BND       X0000010
 BV BND       X0000011
 BV BND       X0000012
 BV BND       X0000013
 BV BND       X0000014
 BV BND       X0000015
 BV BND       X0000016
 BV BND       X0000017
 BV BND       X0000018
 BV BND       X0000019
 BV BND       X0000020
 BV BND       X0000021
ENDATA
